128 76
87 73 65 33 64 108 112 1 85 34 41 48 22 67 58 68 44 31 61 21 110 82 12 71 5 103 15 32 77 83 62 98 46 128 30 14 78 105 90 74 114 9 10 91 125 113 36 50 7 86 54 95 40 23 39 99 79 29 3 75 27 13 124 45 25 66 84 28 72 117 8 123 70 47 2 57 4 11 38 6 51 26 42 37 100 17 56 104 94 118 16 63 107 52 119 102 81 80 109 35 122 116 111 121 120 76 92 96 97 19 88 55 24 20 126 59 106 93 127 101 69 115 53 89 18 60 43 49 
